Gurobi Optimizer version 9.1.2 build v9.1.2rc0 (linux64)
Thread count: 36 physical cores, 72 logical processors, using up to 32 threads
Optimize a model with 12 rows, 57 columns and 590 nonzeros
Model fingerprint: 0xf32eec78
Model has 47 quadratic constraints
Coefficient statistics:
  Matrix range     [2e-05, 3e+00]
  QMatrix range    [1e+00, 1e+00]
  QLMatrix range   [1e+00, 1e+00]
  Objective range  [8e-03, 7e-01]
  Bounds range     [1e+00, 1e+00]
  RHS range        [1e+00, 1e+00]
Presolve removed 9 rows and 0 columns

Continuous model is non-convex -- solving as a MIP.

Presolve removed 9 rows and 0 columns
Presolve time: 0.00s
Presolved: 189 rows, 57 columns, 443 nonzeros
Presolved model has 47 bilinear constraint(s)
Variable types: 57 continuous, 0 integer (0 binary)

Root relaxation: objective -1.743721e+00, 44 iterations, 0.00 seconds

    Nodes    |    Current Node    |     Objective Bounds      |     Work
 Expl Unexpl |  Obj  Depth IntInf | Incumbent    BestBd   Gap | It/Node Time

     0     0   -1.74372    0   38          -   -1.74372      -     -    0s
H    0     0                       0.6147548   -1.74372   384%     -    0s
     0     0   -1.64739    0    1    0.61475   -1.64739   368%     -    0s
H    0     0                      -1.6450460   -1.64739  0.14%     -    0s
     0     0     cutoff    0        -1.64505   -1.64505  0.00%     -    0s

Cutting planes:
  RLT: 25
  BQP: 3

Explored 1 nodes (76 simplex iterations) in 0.01 seconds
Thread count was 32 (of 72 available processors)

Solution count 2: -1.64505 0.614755 
No other solutions better than -1.64505

Optimal solution found (tolerance 1.00e-04)
Best objective -1.645045978473e+00, best bound -1.645045978473e+00, gap 0.0000%

User-callback calls 78, time in user-callback 0.00 sec
Gurobi Optimizer version 9.1.2 build v9.1.2rc0 (linux64)
Thread count: 36 physical cores, 72 logical processors, using up to 32 threads
Optimize a model with 12 rows, 55 columns and 570 nonzeros
Model fingerprint: 0xe2a9c2f0
Model has 45 quadratic constraints
Coefficient statistics:
  Matrix range     [1e-04, 1e+00]
  QMatrix range    [1e+00, 1e+00]
  QLMatrix range   [1e+00, 1e+00]
  Objective range  [1e-02, 8e-01]
  Bounds range     [1e+00, 1e+00]
  RHS range        [1e+00, 1e+00]
Presolve removed 9 rows and 0 columns

Continuous model is non-convex -- solving as a MIP.

Presolve removed 9 rows and 0 columns
Presolve time: 0.00s
Presolved: 183 rows, 55 columns, 432 nonzeros
Presolved model has 45 bilinear constraint(s)
Variable types: 55 continuous, 0 integer (0 binary)

Root relaxation: objective -2.679257e+00, 40 iterations, 0.00 seconds

    Nodes    |    Current Node    |     Objective Bounds      |     Work
 Expl Unexpl |  Obj  Depth IntInf | Incumbent    BestBd   Gap | It/Node Time

     0     0   -2.67926    0   10          -   -2.67926      -     -    0s
H    0     0                      -2.1777067   -2.67926  23.0%     -    0s
     0     0   -2.62236    0    3   -2.17771   -2.62236  20.4%     -    0s
H    0     0                      -2.5646899   -2.62236  2.25%     -    0s
     0     0   -2.60750    0   21   -2.56469   -2.60750  1.67%     -    0s
     0     0   -2.60070    0   36   -2.56469   -2.60070  1.40%     -    0s
     0     0   -2.59966    0    3   -2.56469   -2.59966  1.36%     -    0s
H    0     0                      -2.5898534   -2.59966  0.38%     -    0s
     0     0   -2.59468    0   10   -2.58985   -2.59468  0.19%     -    0s
     0     0   -2.59325    0   10   -2.58985   -2.59325  0.13%     -    0s
     0     0   -2.59289    0    3   -2.58985   -2.59289  0.12%     -    0s
H    0     0                      -2.5925807   -2.59289  0.01%     -    0s
     0     0   -2.59289    0   10   -2.59258   -2.59289  0.01%     -    0s
H    0     0                      -2.5927340   -2.59289  0.01%     -    0s

Cutting planes:
  RLT: 14
  BQP: 4

Explored 1 nodes (135 simplex iterations) in 0.06 seconds
Thread count was 32 (of 72 available processors)

Solution count 5: -2.59273 -2.59258 -2.58985 ... -2.17771

Optimal solution found (tolerance 1.00e-04)
Best objective -2.592734029292e+00, best bound -2.592886036999e+00, gap 0.0059%

User-callback calls 131, time in user-callback 0.00 sec



objective value: -2.592734029292365
objective bound: -2.592886036999301
x_opt: [1.0, 1.0, 0.7737962960905106, 0.15311105203864256, 0.0, 1.0, 0.0, 1.0, 1.0, 1.0]
GUROBI solution time: 0.05930900573730469

